%chk=1Q4T_grep_rmW_aH_ffsol_QMMM.chk
%nprocshared=24
%mem=48000MB
# oniom(wb97xd/6-31g(d):amber=hardfirst) nosymm geom=connectivity iop(2/9=1000,3/33=0,3/36=-1,3/160=2,4/33=0,5/33=0,6/7=2,6/9=2,6/10=2,6/12=2,7/8=10,2/15=3) test

ONIOM input template generated by PDB2QMMM of XXX

TODO
TODO
TODO
TODO