%mem=50000MB
%nprocshared=24
# opt=(calcfc,ts,noeigen,cartesian) freq b3lyp/6-31+g(d,p)
scrf=(smd,solvent=ch2cl2) em=gd3bj

Title Card Required

-1 1
 C                  0.82674100    0.66788000    2.26942600
 C                 -0.14195200   -0.24614800    2.49773700
 C                 -0.67374800   -0.66941600    3.83279200
 H                 -0.63213500   -1.75820100    3.94972600
 H                 -1.72216800   -0.36742000    3.93564600
 H                 -0.09665700   -0.20306200    4.63432500
 C                 -0.74359300   -0.76219600    1.26895900
 O                 -1.96965800   -1.15619800    1.23237400
 C                 -2.61077800   -1.20317800   -0.19570300
 C                 -1.75083000   -2.04653100   -1.09013800
 C                 -0.42560900   -1.88879300   -0.95603400
 O                  0.48215400   -2.43263700   -1.81304600
 C                  0.24472100   -1.18555900    0.20243800
 C                  1.08003300   -2.30801900    0.91388300
 H                  1.73691900   -2.77260700    0.18085700
 H                  0.40193600   -3.07171500    1.30804300
 H                  1.67750500   -1.91342300    1.73134000
 C                  1.07286800    0.09267500   -0.22801900
 C                  2.46879000   -0.21752100   -0.76209700
 C                  3.47453200   -0.57900600    0.04882000
 C                  4.89721700   -0.90171300   -0.31460100
 H                  5.00500700   -1.09420400   -1.38773200
 H                  5.18025600   -1.82996400    0.20103200
 C                  5.90356700    0.20041600    0.09387000
 C                  7.34279200   -0.31153800   -0.03337400
 H                  7.50989300   -1.19505800    0.59380700
 H                  7.56506200   -0.58990500   -1.07175700
 H                  8.06433400    0.45720000    0.26682300
 C                  5.70099000    1.47407600   -0.73462500
 H                  4.67460700    1.84353500   -0.65785400
 H                  6.37433700    2.27184600   -0.40029400
 H                  5.91078300    1.28156400   -1.79454800
 H                  5.72000500    0.44502800    1.15064100
 H                  3.27040000   -0.62766500    1.11770800
 C                  2.61021700   -0.01486700   -2.24966400
 H                  2.45653400    1.04398700   -2.49822500
 H                  3.59183500   -0.30677800   -2.62592000
 H                  1.84853600   -0.58304800   -2.79346600
 H                  0.50391300    0.52948700   -1.05137500
 C                  1.01064900    1.20903700    0.87712900
 C                  2.13318100    2.23579600    0.78694600
 H                  1.89360400    3.08007500    1.43932500
 H                  3.08027100    1.80287400    1.10602300
 H                  2.24517900    2.60062100   -0.23697300
 O                 -0.17451900    2.05441300    0.57635600
 O                 -1.38137700    1.38106700    1.00068800
 C                 -2.38894100   -2.77647700   -2.24584800
 H                 -3.47698200   -2.76068200   -2.16390600
 H                 -2.07496100   -3.82685500   -2.28519100
 H                 -2.13268800   -2.31067800   -3.20652300
 O                 -3.88311500   -1.60997400    0.02492700
 C                 -4.04440600   -2.90853000    0.63040800
 H                 -3.42626700   -3.66180600    0.13379500
 H                 -3.79049200   -2.86038000    1.69227700
 H                 -5.09884800   -3.15799500    0.51189100
 H                  1.32710300    1.16300400    3.09719600
 O                 -2.57387800    0.07353600   -0.71571900
 C                 -2.85651600    1.24817200    0.06890700
 C                 -2.74079700    2.41294200   -0.94946200
 O                 -3.74418500    1.27611100    0.91463100
 F                 -3.87430300    2.46226100   -1.70461900
 F                 -1.70691500    2.31934100   -1.81223600
 F                 -2.64041200    3.59691800   -0.31281200



